tsp15-5_20210518_144640.tsp
NAME: tsp15-5_20210518_144640
TYPE: TSP
COMMENT: Generated by GitHub user:GunterSchmidt
DIMENSION: 15
EDGE_WEIGHT_TYPE: EUC_2D
NODE_COORD_SECTION
   1  59.36  43.29
   2  103.32  44.49
   3  97.76  35.44
   4  113.27  15.96
   5  78.98  45.83
   6  43.92  79.19
   7  47.19  63.91
   8  86.44  45.24
   9  7.15  3.88
  10  124.89  37.52
  11  90.98  23.1
  12  104.31  65.06
  13  122.68  5.13
  14  120.12  74.81
  15  67.01  36.48
EOF
