examples/tsp15-5_20210518_144640.opt.tour
NAME : tsp15-5_20210518_144640 (Opt)
COMMENT : Length 414.87042, Brute-force solved by GitHub user:GunterSchmidt
TYPE : TOUR
DIMENSION : 15
TOUR_SECTION
   1
  15
   5
   8
   3
   2
  12
  14
  10
  13
   4
  11
   9
   6
   7
EOF
